num_features = 64;
num_usage_limits = 0;
num_plans = 3;
num_addons = 0;

features = ["estimates", "salesOrder", "invoices", "purchaseRequisitions", "purchaseOrders", "bills", "expenses", "documentTemplateDesigner", "paymentMilestones", "customers", "vendors", "products", "services", "priceLists", "inventoryTracking", "orderFulfillment", "goodsReceipt", "inventoryReorder", "productVariants", "inventoryBarcoding", "uomSchemas", "multiWarehouse", "rowRackBin", "warehouseRoles", "stockAdjustments", "stockTransfers", "lotTracking", "batchTracking", "serialTracking", "billOfMaterials", "pickPackShip", "landedCost", "bankFeeds", "importBankTransactions", "bankRules", "chartOfAccounts", "journalEntries", "deposits", "creditNotes", "debitNotes", "budgeting", "financialYearClosing", "class", "department", "location", "customFields", "multiBookAccounting", "multiEntityConsolidation", "interCompanyEliminations", "revaluations", "multiCurrencyAccounting", "revenueRecognition", "expenseAmortization", "reclassification", "approvalFlows", "workflowAutomation", "financialReports", "salesReports", "purchaseReports", "invetoryReports", "warehouseReports", "reportBuilder", "accountManagement", "contactDatabase", "deals", "opportunities", "salesPipelines", "tasks", "activities", "forms", "landingPages", "emailBroadcasts", "dripEmailSequence", "salesAutomation", "marketingAutomation", "crmReports", "recruitmentManagement", "employeeDatabase", "payrollIntegration", "timeOffs", "employeeExpenses", "timesheetTracking", "shiftManagement", "attendanceTracking", "geoFencing", "performanceAppraisals", "apisIntegration", "amazonIntegration", "paypalIntegration", "shipstationIntegration", "shopifyIntegration", "squareIntegration", "stripeIntegration", "wooCommerceIntegration", "mobileApp", "roleBasedAccess", "auditLog", "customIntegrations", "customReports", "customDashboards"];
usage_limits = [];
plans = ["GROWTH", "ESSENTIAL", "PROFESSIONAL"];
addons = [];

plans_prices = [199.0,249.0,10000000.0];
addons_prices = [];

plans_features = array2d(PLANS, FEATURES, [
    % GROWTH
    1,1,1,1,1,1,1,1,1,1,1,1,1,1,1,1,1,1,1,1,1,1,0,0,1,1,1,1,1,1,1,0,1,1,1,1,1,1,1,1,1,1,1,1,1,0,1,0,0,0,1,1,1,1,1,1,1,0,1,1,1,1,1,1,1,1,1,1,1,1,1,1,1,1,1,1,1,1,1,1,1,1,1,1,1,1,1,1,1,1,1,1,1,1,1,1,1,1,
    % ESSENTIAL
    1,1,1,1,1,1,1,1,1,1,1,1,1,1,1,1,1,1,1,1,1,1,1,1,1,1,1,1,1,1,1,1,1,1,1,1,1,1,1,1,1,1,1,1,1,1,1,1,1,1,1,1,1,1,1,1,1,1,1,1,1,1,1,1,1,1,1,1,1,1,1,1,1,1,1,1,1,1,1,1,1,1,1,1,1,1,1,1,1,1,1,1,1,1,1,1,1,1,
    % PROFESSIONAL
    1,1,1,1,1,1,1,1,1,1,1,1,1,1,1,1,1,1,1,1,1,1,1,1,1,1,1,1,1,1,1,1,1,1,1,1,1,1,1,1,1,1,1,1,1,1,1,1,1,1,1,1,1,1,1,1,1,1,1,1,1,1,1,1,1,1,1,1,1,1,1,1,1,1,1,1,1,1,1,1,1,1,1,1,1,1,1,1,1,1,1,1,1,1,1,1,1,1
]);
plans_usage_limits = array2d(PLANS, USAGE_LIMITS, [
    % GROWTH
    ,
    % ESSENTIAL
    ,
    % PROFESSIONAL
    ,
]);

linked_features = array2d(USAGE_LIMITS, FEATURES, [
    % 
    ,
    % 
    ,
]);

addons_features = array2d(ADDONS, FEATURES, [
    % 
    ,
    % 
    ,
]);
addons_usage_limits = array2d(ADDONS, USAGE_LIMITS, [
    % 
    ,
    % 
    ,
]);
addons_usage_limits_extensions = array2d(ADDONS, USAGE_LIMITS, [
    % 
    ,
    % 
    ,
]);
addons_available_for = array2d(ADDONS, PLANS, [
    % 
    ,
    % 
    ,
]);

addons_depends_on = array2d(ADDONS, ADDONS, [
    % 
    ,
    % 
    ,
]);